(set-logic HORN)
(declare-fun !inv0 (Int Int (Array Int Int) Int Int ) Bool)
(assert (forall ((CELLCOUNT_3@0 Int)(volArray@0 (Array Int Int))(MINVAL@0 Int)(.volArray!size@0 Int)(i@0 Int)) (=> (and (> (* 3 |CELLCOUNT_3@0|) 1) (= |.volArray!size@0| (* 3 |CELLCOUNT_3@0|)) (= |i@0| 1)) (!inv0 |CELLCOUNT_3@0| |MINVAL@0| |volArray@0| |.volArray!size@0| |i@0|))))
(assert (forall ((CELLCOUNT_3@0 Int)(MINVAL@0 Int)(volArray@0 (Array Int Int))(.volArray!size@0 Int)(i@0 Int)) (=> (and (!inv0 |CELLCOUNT_3@0| |MINVAL@0| |volArray@0| |.volArray!size@0| |i@0|) (not (<= |i@0| |CELLCOUNT_3@0|)) (not (forall ((k@0 Int)) (=> (and (<= 0 |k@0|) (< |k@0| (* 3 |CELLCOUNT_3@0|))) (or (>= (select |volArray@0| |k@0|) |MINVAL@0|) (= (select |volArray@0| |k@0|) 0)))))) false)))
(assert (forall ((CELLCOUNT_3@0 Int)(MINVAL@0 Int)(volArray@0 (Array Int Int))(.volArray!size@0 Int)(i@0 Int)(i@1 Int)(volArray@3 (Array Int Int))(volArray@4 (Array Int Int))(volArray@1 (Array Int Int))) (=> (and (!inv0 |CELLCOUNT_3@0| |MINVAL@0| |volArray@4| |.volArray!size@0| |i@0|) (= |i@1| (+ |i@0| 1)) (>= 1 |MINVAL@0|) (= |volArray@0| (store |volArray@1| (- (* |i@0| 3) 1) 1)) (>= 3 |MINVAL@0|) (= |volArray@1| (store |volArray@3| (- (* |i@0| 3) 2) 3)) (<= |i@0| |CELLCOUNT_3@0|) (>= 7 |MINVAL@0|) (= |volArray@3| (store |volArray@4| (- (* |i@0| 3) 3) 7))) (!inv0 |CELLCOUNT_3@0| |MINVAL@0| |volArray@0| |.volArray!size@0| |i@1|))))
(assert (forall ((CELLCOUNT_3@0 Int)(MINVAL@0 Int)(volArray@0 (Array Int Int))(.volArray!size@0 Int)(i@0 Int)(i@1 Int)(volArray@3 (Array Int Int))(volArray@1 (Array Int Int))(volArray@4 (Array Int Int))) (=> (and (!inv0 |CELLCOUNT_3@0| |MINVAL@0| |volArray@4| |.volArray!size@0| |i@0|) (= |i@1| (+ |i@0| 1)) (>= 1 |MINVAL@0|) (= |volArray@0| (store |volArray@1| (- (* |i@0| 3) 1) 1)) (>= 3 |MINVAL@0|) (= |volArray@1| (store |volArray@3| (- (* |i@0| 3) 2) 3)) (<= |i@0| |CELLCOUNT_3@0|) (not (>= 7 |MINVAL@0|)) (= |volArray@3| (store |volArray@4| (- (* |i@0| 3) 3) 0))) (!inv0 |CELLCOUNT_3@0| |MINVAL@0| |volArray@0| |.volArray!size@0| |i@1|))))
(assert (forall ((volArray@4 (Array Int Int))(volArray@3 (Array Int Int))(volArray@1 (Array Int Int))(CELLCOUNT_3@0 Int)(MINVAL@0 Int)(volArray@0 (Array Int Int))(.volArray!size@0 Int)(i@0 Int)(i@1 Int)) (=> (and (!inv0 |CELLCOUNT_3@0| |MINVAL@0| |volArray@4| |.volArray!size@0| |i@0|) (= |i@1| (+ |i@0| 1)) (>= 1 |MINVAL@0|) (= |volArray@0| (store |volArray@1| (- (* |i@0| 3) 1) 1)) (not (>= 3 |MINVAL@0|)) (= |volArray@1| (store |volArray@3| (- (* |i@0| 3) 2) 0)) (<= |i@0| |CELLCOUNT_3@0|) (not (>= 7 |MINVAL@0|)) (= |volArray@3| (store |volArray@4| (- (* |i@0| 3) 3) 0))) (!inv0 |CELLCOUNT_3@0| |MINVAL@0| |volArray@0| |.volArray!size@0| |i@1|))))
(assert (forall ((volArray@1 (Array Int Int))(volArray@3 (Array Int Int))(volArray@4 (Array Int Int))(CELLCOUNT_3@0 Int)(MINVAL@0 Int)(volArray@0 (Array Int Int))(.volArray!size@0 Int)(i@0 Int)(i@1 Int)) (=> (and (!inv0 |CELLCOUNT_3@0| |MINVAL@0| |volArray@4| |.volArray!size@0| |i@0|) (= |i@1| (+ |i@0| 1)) (>= 1 |MINVAL@0|) (= |volArray@0| (store |volArray@1| (- (* |i@0| 3) 1) 1)) (not (>= 3 |MINVAL@0|)) (= |volArray@1| (store |volArray@3| (- (* |i@0| 3) 2) 0)) (<= |i@0| |CELLCOUNT_3@0|) (>= 7 |MINVAL@0|) (= |volArray@3| (store |volArray@4| (- (* |i@0| 3) 3) 7))) (!inv0 |CELLCOUNT_3@0| |MINVAL@0| |volArray@0| |.volArray!size@0| |i@1|))))
(assert (forall ((volArray@4 (Array Int Int))(volArray@1 (Array Int Int))(volArray@3 (Array Int Int))(CELLCOUNT_3@0 Int)(MINVAL@0 Int)(volArray@0 (Array Int Int))(.volArray!size@0 Int)(i@0 Int)(i@1 Int)) (=> (and (!inv0 |CELLCOUNT_3@0| |MINVAL@0| |volArray@4| |.volArray!size@0| |i@0|) (= |i@1| (+ |i@0| 1)) (not (>= 1 |MINVAL@0|)) (= |volArray@0| (store |volArray@1| (- (* |i@0| 3) 1) 0)) (>= 3 |MINVAL@0|) (= |volArray@1| (store |volArray@3| (- (* |i@0| 3) 2) 3)) (<= |i@0| |CELLCOUNT_3@0|) (not (>= 7 |MINVAL@0|)) (= |volArray@3| (store |volArray@4| (- (* |i@0| 3) 3) 0))) (!inv0 |CELLCOUNT_3@0| |MINVAL@0| |volArray@0| |.volArray!size@0| |i@1|))))
(assert (forall ((volArray@3 (Array Int Int))(volArray@4 (Array Int Int))(volArray@1 (Array Int Int))(CELLCOUNT_3@0 Int)(MINVAL@0 Int)(volArray@0 (Array Int Int))(.volArray!size@0 Int)(i@0 Int)(i@1 Int)) (=> (and (!inv0 |CELLCOUNT_3@0| |MINVAL@0| |volArray@4| |.volArray!size@0| |i@0|) (= |i@1| (+ |i@0| 1)) (not (>= 1 |MINVAL@0|)) (= |volArray@0| (store |volArray@1| (- (* |i@0| 3) 1) 0)) (>= 3 |MINVAL@0|) (= |volArray@1| (store |volArray@3| (- (* |i@0| 3) 2) 3)) (<= |i@0| |CELLCOUNT_3@0|) (>= 7 |MINVAL@0|) (= |volArray@3| (store |volArray@4| (- (* |i@0| 3) 3) 7))) (!inv0 |CELLCOUNT_3@0| |MINVAL@0| |volArray@0| |.volArray!size@0| |i@1|))))
(assert (forall ((volArray@4 (Array Int Int))(volArray@3 (Array Int Int))(volArray@1 (Array Int Int))(CELLCOUNT_3@0 Int)(MINVAL@0 Int)(volArray@0 (Array Int Int))(.volArray!size@0 Int)(i@0 Int)(i@1 Int)) (=> (and (!inv0 |CELLCOUNT_3@0| |MINVAL@0| |volArray@4| |.volArray!size@0| |i@0|) (= |i@1| (+ |i@0| 1)) (not (>= 1 |MINVAL@0|)) (= |volArray@0| (store |volArray@1| (- (* |i@0| 3) 1) 0)) (not (>= 3 |MINVAL@0|)) (= |volArray@1| (store |volArray@3| (- (* |i@0| 3) 2) 0)) (<= |i@0| |CELLCOUNT_3@0|) (>= 7 |MINVAL@0|) (= |volArray@3| (store |volArray@4| (- (* |i@0| 3) 3) 7))) (!inv0 |CELLCOUNT_3@0| |MINVAL@0| |volArray@0| |.volArray!size@0| |i@1|))))
(assert (forall ((volArray@4 (Array Int Int))(volArray@3 (Array Int Int))(volArray@1 (Array Int Int))(CELLCOUNT_3@0 Int)(MINVAL@0 Int)(volArray@0 (Array Int Int))(.volArray!size@0 Int)(i@0 Int)(i@1 Int)) (=> (and (!inv0 |CELLCOUNT_3@0| |MINVAL@0| |volArray@4| |.volArray!size@0| |i@0|) (= |i@1| (+ |i@0| 1)) (not (>= 1 |MINVAL@0|)) (= |volArray@0| (store |volArray@1| (- (* |i@0| 3) 1) 0)) (not (>= 3 |MINVAL@0|)) (= |volArray@1| (store |volArray@3| (- (* |i@0| 3) 2) 0)) (<= |i@0| |CELLCOUNT_3@0|) (not (>= 7 |MINVAL@0|)) (= |volArray@3| (store |volArray@4| (- (* |i@0| 3) 3) 0))) (!inv0 |CELLCOUNT_3@0| |MINVAL@0| |volArray@0| |.volArray!size@0| |i@1|))))
(check-sat)